
Gurobi 9.0.1 (linux64) logging started Fri May  1 09:51:04 2020

Gurobi Optimizer version 9.0.1 build v9.0.1rc0 (linux64)
Optimize a model with 7043 rows, 4412 columns and 27454 nonzeros
Model fingerprint: 0x429df9a0
Variable types: 0 continuous, 4412 integer (4352 binary)
Coefficient statistics:
  Matrix range     [1e+00, 2e+01]
  Objective range  [5e+00, 1e+02]
  Bounds range     [1e+00, 1e+00]
  RHS range        [1e+00, 2e+01]

User MIP start produced solution with objective 916 (0.01s)
Loaded user MIP start with objective 916

Presolve removed 5626 rows and 2507 columns
Presolve time: 0.07s
Presolved: 1417 rows, 1905 columns, 10560 nonzeros
Variable types: 0 continuous, 1905 integer (1875 binary)

Root relaxation: objective 5.231333e+02, 549 iterations, 0.03 seconds

    Nodes    |    Current Node    |     Objective Bounds      |     Work
 Expl Unexpl |  Obj  Depth IntInf | Incumbent    BestBd   Gap | It/Node Time

     0     0  523.13333    0   69  916.00000  523.13333  42.9%     -    0s
     0     0  610.00000    0   67  916.00000  610.00000  33.4%     -    0s
     0     0  610.00000    0   65  916.00000  610.00000  33.4%     -    0s
     0     0  615.60000    0   82  916.00000  615.60000  32.8%     -    0s
     0     0  615.60000    0   84  916.00000  615.60000  32.8%     -    0s
     0     0  622.50000    0  115  916.00000  622.50000  32.0%     -    0s
     0     0  622.50000    0  106  916.00000  622.50000  32.0%     -    0s
     0     0  627.33333    0   94  916.00000  627.33333  31.5%     -    0s
     0     0  628.08408    0  107  916.00000  628.08408  31.4%     -    0s
     0     0  628.27206    0  114  916.00000  628.27206  31.4%     -    0s
     0     0  629.00000    0  114  916.00000  629.00000  31.3%     -    0s
     0     0  629.16667    0  103  916.00000  629.16667  31.3%     -    0s
     0     0  629.47814    0  112  916.00000  629.47814  31.3%     -    0s
     0     0  629.48718    0  108  916.00000  629.48718  31.3%     -    0s
     0     0  631.33527    0  121  916.00000  631.33527  31.1%     -    0s
     0     0  631.68421    0  117  916.00000  631.68421  31.0%     -    0s
     0     0  631.68421    0   90  916.00000  631.68421  31.0%     -    0s
     0     0  631.80000    0  105  916.00000  631.80000  31.0%     -    0s
     0     0  631.80000    0  107  916.00000  631.80000  31.0%     -    0s
     0     0  631.80000    0  100  916.00000  631.80000  31.0%     -    0s
     0     0  631.80000    0  140  916.00000  631.80000  31.0%     -    0s
     0     0  631.80000    0   84  916.00000  631.80000  31.0%     -    0s
     0     0  631.80000    0   99  916.00000  631.80000  31.0%     -    0s
     0     0  631.80000    0  105  916.00000  631.80000  31.0%     -    1s
     0     0  631.80000    0  104  916.00000  631.80000  31.0%     -    1s
     0     2  631.80000    0   74  916.00000  631.80000  31.0%     -    1s
H  407   321                     896.0000000  632.35000  29.4%  19.9    3s
   520   417  682.69588   51   94  896.00000  634.03896  29.2%  20.3    5s
   556   442  643.00000    8   67  896.00000  643.00000  28.2%  40.3   10s
   649   506  742.42857   57  116  896.00000  646.33333  27.9%  53.5   15s
   925   672  663.46429  122   64  896.00000  647.33333  27.8%  47.7   20s
H  931   641                     875.0000000  647.33333  26.0%  47.5   20s
  1349   862  841.00000  112   85  875.00000  647.33333  26.0%  43.6   25s
  2891  1957  746.71429   98   59  875.00000  648.64286  25.9%  34.5   30s
  4178  3030  767.00000   66  155  875.00000  649.42857  25.8%  33.6   35s
  5319  3965  655.95833   37  163  875.00000  650.04464  25.7%  33.6   40s
  6386  4810  681.16667   42  138  875.00000  650.92582  25.6%  33.3   45s
H 6641  3878                     818.0000000  650.98810  20.4%  34.0   46s
  7206  4290  676.40124   54  286  818.00000  651.00000  20.4%  35.0   50s
  7644  4649  705.35714   85  106  818.00000  651.00000  20.4%  37.5   55s
  8263  5143  651.00000   45   71  818.00000  651.00000  20.4%  39.7   60s
  9103  5865  651.00275   93  148  818.00000  651.00000  20.4%  39.6   65s
  9885  6457  651.03021   52  252  818.00000  651.00000  20.4%  39.7   70s
H 9924  5970                     794.0000000  651.00000  18.0%  39.7   70s
 10203  6174  656.00000   46  104  794.00000  651.00000  18.0%  40.1   86s
 10218  6184  752.00000  132  112  794.00000  651.00000  18.0%  40.0   90s
 10226  6189  673.28571   55  109  794.00000  651.00000  18.0%  40.0   95s
 10276  6225  661.71429   60   93  794.00000  651.00000  18.0%  40.9  100s
 10381  6283  775.00000  113   69  794.00000  651.00000  18.0%  41.2  105s
 10622  6409  773.00000   97   88  794.00000  651.00000  18.0%  41.3  110s
 10996  6612  788.00000  109  104  794.00000  651.00000  18.0%  40.8  115s
 11340  6754  699.00000   76  139  794.00000  651.00000  18.0%  40.8  120s
 11875  7003  792.00000   65  175  794.00000  651.00000  18.0%  40.3  125s
 13050  7561  773.00000  114  102  794.00000  651.00000  18.0%  39.9  130s
 13972  7946  720.00000   86  111  794.00000  651.00000  18.0%  40.6  135s
 15089  8464  776.60000   76  164  794.00000  651.00000  18.0%  40.3  140s
 16027  8805  668.71429   44  179  794.00000  651.00000  18.0%  40.3  145s
 16837  9114  692.40000   64  154  794.00000  651.00000  18.0%  40.7  150s
 17556  9407  661.85714   48  172  794.00000  651.00000  18.0%  40.3  155s
 18811 10005  756.00000  123   59  794.00000  651.00000  18.0%  40.4  160s
 19922 10471  784.97674   87  165  794.00000  651.00000  18.0%  40.5  165s
 20937 10944  791.00000   92   91  794.00000  651.00000  18.0%  40.7  170s
 21685 11274  651.00000   45  173  794.00000  651.00000  18.0%  41.0  175s
 22559 11677  651.00000   49  169  794.00000  651.00000  18.0%  41.4  180s
H22561  6777                     723.0000000  651.00000  10.0%  41.5  180s
H22562  1477                     651.0000000  651.00000  0.00%  41.5  180s

Cutting planes:
  Learned: 16
  Gomory: 15
  Cover: 17
  Implied bound: 89
  Clique: 1
  MIR: 23
  StrongCG: 1
  Flow cover: 127
  GUB cover: 2
  Inf proof: 12
  Zero half: 48
  Relax-and-lift: 1

Explored 22563 nodes (938492 simplex iterations) in 180.57 seconds
Thread count was 1 (of 40 available processors)

Solution count 7: 651 723 794 ... 916

Optimal solution found (tolerance 1.00e-04)
Best objective 6.510000000000e+02, best bound 6.510000000000e+02, gap 0.0000%

User-callback calls 104759, time in user-callback 0.09 sec
